Minimize

2.0 x_0 + 3.0 x_1 + 5.0 x_2 + 3.5 x_3 + 1.5 x_4 + 4.5 x_5 + 6.0 x_6 + 1.0 x_7


Subject To

a0: y_0 + y_1 + y_2 <= 3
b0: 0 x_0 + 0 x_1 + 1 x_2 + 1 x_3 + 0 x_4 + 0 x_5 + 0 x_6 + 0 x_7 >= 1
b1: 1 x_0 + 0 x_1 + 0 x_2 + 0 x_3 + 0 x_4 + 0 x_5 + 0 x_6 + 1 x_7 >= 1
b2: 0 x_0 + 0 x_1 + 0 x_2 + 1 x_3 + 1 x_4 + 0 x_5 + 0 x_6 + 1 x_7 >= 1
b3: 0 x_0 + 0 x_1 + 0 x_2 + 1 x_3 + 0 x_4 + 1 x_5 + 0 x_6 + 0 x_7 >= 1
b4: 0 x_0 + 0 x_1 + 1 x_2 + 0 x_3 + 0 x_4 + 1 x_5 + 1 x_6 + 1 x_7 >= 1
b5: 1 x_0 + 0 x_1 + 0 x_2 + 0 x_3 + 0 x_4 + 1 x_5 + 1 x_6 + 0 x_7 >= 1
b6: 1 x_0 + 1 x_1 + 0 x_2 + 0 x_3 + 1 x_4 + 0 x_5 + 0 x_6 + 0 x_7 >= 1
c0: y_0 - 0 x_0 >= 0
c1: y_1 - 0 x_0 >= 0
c2: y_2 - 1 x_0 >= 0
c3: y_0 - 1 x_1 >= 0
c4: y_1 - 0 x_1 >= 0
c5: y_2 - 0 x_1 >= 0
c6: y_0 - 1 x_2 >= 0
c7: y_1 - 0 x_2 >= 0
c8: y_2 - 0 x_2 >= 0
c9: y_0 - 0 x_3 >= 0
c10: y_1 - 0 x_3 >= 0
c11: y_2 - 1 x_3 >= 0
c12: y_0 - 0 x_4 >= 0
c13: y_1 - 1 x_4 >= 0
c14: y_2 - 0 x_4 >= 0
c15: y_0 - 1 x_5 >= 0
c16: y_1 - 0 x_5 >= 0
c17: y_2 - 0 x_5 >= 0
c18: y_0 - 0 x_6 >= 0
c19: y_1 - 1 x_6 >= 0
c20: y_2 - 0 x_6 >= 0
c21: y_0 - 0 x_7 >= 0
c22: y_1 - 1 x_7 >= 0
c23: y_2 - 0 x_7 >= 0




Binary

x_0 x_1 x_2 x_3 x_4 x_5 x_6 x_7 y_0 y_1 y_2

 


End
